%mem=20GB
%nprocshared=24
#p opt am1 

Missing Meta Orto Spiro

0 1
C         12.93543      -11.09795        0.13863
C         11.71708      -11.84571       -0.37102
C         12.06481      -13.11919       -0.78332
C         13.45128      -13.33529       -0.49749
C         13.96842      -12.18985        0.04737
C         13.30341       -9.90096       -0.70925
C         13.55186       -8.79583        0.06876
C         13.35515       -9.15388        1.45246
C         12.93423      -10.46803        1.51625
C         13.39644       -9.83847       -2.10514
C         13.71504       -8.59929       -2.71818
C         13.99633       -7.48077       -1.89011
C         13.92660       -7.58019       -0.49375
C         14.22641      -14.47107       -0.68083
C         15.55788      -14.43866       -0.25674
C         16.10829      -13.27276        0.34916
C         15.29548      -12.12456        0.47174
C         10.40153      -11.40086       -0.49726
C          9.45193      -12.26363       -1.09678
C          9.84090      -13.54694       -1.54211
C         11.15183      -13.98650       -1.36794
C         13.56176       -8.39396        2.60036
C         13.35865       -9.00188        3.84924
C         12.90689      -10.34330        3.93225
C         12.67325      -11.07595        2.74472
N         13.70785       -8.44766       -4.15129
N         17.46271      -13.25865        0.84878
N          8.09266      -11.85477       -1.22342
N         12.75935      -10.97914        5.20792
C         13.83696      -10.95654        6.14002
C          7.41832      -11.38382       -0.06773
C         11.66845      -11.86671        5.43189
C          7.30096      -12.30408       -2.33994
C         13.76555       -9.57329       -5.01937
C         13.35950       -7.19554       -4.73950
C         18.08516      -14.50966        1.19896
C         18.22402      -12.04293        0.85207
C         19.42105      -14.75595        0.84551
C         19.99480      -16.00237        1.10524
C         19.25152      -17.00624        1.73323
C         17.92012      -16.78025        2.10248
C         17.34490      -15.52394        1.83811
C         12.80935       -9.72029       -6.04495
C         12.86143      -10.81011       -6.90408
C         13.88128      -11.74363       -6.77320
C         14.86023      -11.59530       -5.76314
C         14.78358      -10.51783       -4.88246
C         14.11575       -6.68111       -5.81732
C         13.71813       -5.46782       -6.41324
C         12.58212       -4.79778       -5.95344
C         11.83771       -5.31779       -4.89404
C         12.22771       -6.50599       -4.28402
C         19.04448      -11.67853        1.95461
C         19.78356      -10.47589        1.89942
C         19.71772       -9.65414        0.77369
C         18.90904      -10.00724       -0.30319
C         18.16282      -11.18236       -0.26384
C          7.52188      -12.04816        1.16174
C          6.71817      -11.65774        2.23309
C          5.85979      -10.57289        2.11129
C          5.78494       -9.89172        0.91719
C          6.55599      -10.31065       -0.18734
C          7.79482      -12.24230       -3.66361
C          6.99747      -12.72594       -4.72525
C          5.73632      -13.26855       -4.47348
C          5.24553      -13.32283       -3.17303
C          6.01028      -12.83743       -2.11558
C         10.39287      -11.41898        5.15723
C          9.27326      -12.22965        5.39504
C          9.45392      -13.53493        5.86513
C         10.74368      -14.00522        6.13480
C         11.85062      -13.16754        5.94081
C         15.15425      -11.05895        5.67039
C         16.21462      -11.14754        6.56674
C         15.97340      -11.12343        7.94140
C         14.66966      -10.99265        8.42456
C         13.59459      -10.89954        7.53610
H         12.36667      -12.11268        2.78270
H         10.12654      -10.40698       -0.16594
H          9.11683      -14.21493       -1.98921
H         11.44190      -14.97834       -1.68540
H         13.81325      -15.36761       -1.12234
H         16.15506      -15.32815       -0.39999
H         13.90629       -7.36992        2.53366
H         13.54472       -8.43268        4.75155
H         14.13828       -6.72005        0.12558
H         14.26553       -6.53091       -2.33224
H         15.66732      -11.21829        0.93015
H         13.17011      -10.71954       -2.69204
H         12.00834       -9.00069       -6.16073
H         12.11318      -10.93051       -7.67730
H         21.01493      -16.19441        0.80052
H         20.00104      -14.00155        0.33132
O         15.88770      -12.46495       -5.62721
H         12.84398      -13.53699        6.15812
H         10.88222      -15.01396        6.50257
O          8.02283      -11.75418        5.19648
H          7.34417      -12.68791       -5.74822
O          9.01911      -11.69044       -3.88739
H          4.26957      -13.74977       -2.97982
H          5.60916      -12.90753       -1.11324
O          4.94445       -8.84946        0.84380
H          5.23672      -10.25117        2.93662
H          6.74836      -12.19789        3.15890
H          8.17405      -12.89917        1.27068
H         15.35299      -11.11208        4.60702
H         17.22248      -11.25147        6.19133
H         16.79935      -11.20078        8.63334
H         14.49105      -10.95519        9.49163
O         12.34755      -10.72384        8.03548
H         20.41035      -10.16312        2.72392
O         19.06979      -12.47519        3.06205
H         20.29306       -8.73807        0.73914
H         18.86297       -9.36826       -1.17531
H         17.54889      -11.44420       -1.11599
H         11.63151       -6.91479       -3.47745
H         10.95104       -4.80515       -4.54858
H         12.27638       -3.87348       -6.42243
H         14.27890       -5.04070       -7.23281
O         15.22390       -7.35734       -6.23340
H         19.70581      -17.97123        1.91671
H         13.90456      -12.57237       -7.46536
H          5.13697      -13.64677       -5.29125
H          8.59699      -14.17651        6.03406
C         11.68829       -9.51209        7.92160
C          9.60512      -11.53537       -5.12586
C         16.08932       -6.94094       -7.22648
C         19.77372      -12.19639        4.22013
H         12.26087       -8.71929        8.45251
H         10.68479       -9.58577        8.38968
H         11.56573       -9.21332        6.85967
H         10.58664      -11.04179       -4.99520
H          8.97229      -10.89426       -5.77792
H          9.76462      -12.52649       -5.60050
H         16.91266       -7.67824       -7.32901
H         16.53523       -5.95813       -6.96063
H         15.55697       -6.86991       -8.19829
H         19.58278      -12.99248        4.96820
H         19.44239      -11.22745        4.65556
H         20.86383      -12.16175        4.00952
H         16.32423      -15.32276        2.12769
O         17.22328      -17.78184        2.70450
C         15.85563      -17.97885        2.60615
H         15.60385      -18.33685        1.58432
H         15.26964      -17.06850        2.83982
H         15.54942      -18.76204        3.32943
C         16.07070      -13.54996       -6.44875
H         16.98907      -14.08610       -6.14726
H         16.17823      -13.20507       -7.50101
H         15.19572      -14.22745       -6.35274
H         15.53632      -10.39330       -4.11308
H         10.29033      -10.40686        4.79640
C          7.78503      -10.44831        4.81793
H          8.20021       -9.75371        5.57621
H          6.70079      -10.27365        4.73056
H          8.27465      -10.25787        3.83462
C          4.80929       -8.13552       -0.30328
H          6.50480       -9.81809       -1.15122
H          4.06949       -7.34357       -0.13073
H          4.46182       -8.83826       -1.09565
H          5.80824       -7.70651       -0.54968


