%mem=16GB
%nprocs=24
#p opt b3lyp/6-31g*

Auto Spiro

0 1
