%mem=16GB
%nprocs=24
#p opt b3lyp/6-31g*

Auto Spiro

0 1
 C   12.589826   12.066439   13.238087
 C   11.271962   11.388707   12.853909
 C   11.494348   10.039292   12.504922
 C   12.913733    9.740967   12.661019
 C   13.579496   10.908020   13.092323
 C   12.925768   13.265469   12.346279
 C   13.082850   14.431165   13.124693
 C   12.876337   14.090075   14.527903
 C   12.583515   12.713358   14.624640
 C   13.050357   13.293976   10.966859
 C   13.351633   14.513389   10.328477
 C   13.526533   15.675468   11.106274
 C   13.386251   15.641475   12.491253
 C   13.648269    8.566868   12.465439
 C   15.021940    8.570223   12.692973
 C   15.685420    9.734313   13.131647
 C   14.942797   10.915382   13.336109
 C   10.008552   11.953344   12.787886
 C    8.923183   11.159998   12.367150
 C    9.142574    9.812134   12.022566
 C   10.416317    9.252424   12.085252
 C   12.919867   14.864079   15.692701
 C   12.673354   14.265882   16.924868
 C   12.396682   12.886638   17.023476
 C   12.352821   12.107376   15.849200
 N   13.490101   14.563399    8.919065
 N   17.078886    9.707500   13.375218
 N    7.620734   11.713775   12.268978
 N   12.149673   12.294578   18.284040
 C   12.843188   12.730532   19.440672
 C    7.123270   12.573511   13.275066
 C   11.181205   11.259162   18.401787
 C    6.822819   11.408352   11.132792
 C   14.141735   13.491009    8.247381
 C   12.989667   15.659376    8.179818
 C   17.666914    8.540771   13.940535
 C   17.893288   10.823067   13.066641
 C   18.830671    7.987851   13.395319
 C   19.415894    6.847183   13.948938
 C   18.823797    6.227020   15.056456
 C   17.652468    6.771825   15.604824
 C   17.088652    7.916702   15.059737
 C   13.587835   12.918126    7.097387
 C   14.228863   11.871012    6.432105
 C   15.436790   11.364092    6.927997
 C   15.993465   11.926190    8.087139
 C   15.358411   12.979162    8.730722
 C   13.666242   16.108912    7.039093
 C   13.164089   17.178646    6.288737
 C   11.986193   17.829735    6.677616
 C   11.323740   17.377529    7.824637
 C   11.799340   16.306925    8.570556
 C   18.967455   11.160895   13.897842
 C   19.789789   12.251214   13.589659
 C   19.541840   13.028668   12.450918
 C   18.461126   12.684299   11.631346
 C   17.643499   11.598174   11.916410
 C    7.450570   12.364062   14.623316
 C    6.941375   13.224782   15.596649
 C    6.102070   14.283150   15.264855
 C    5.773073   14.490835   13.916447
 C    6.284252   13.649849   12.924620
 C    7.370172   11.434536    9.844869
 C    6.598021   11.119415    8.724387
 C    5.245603   10.791080    8.878729
 C    4.686981   10.768679   10.166267
 C    5.466493   11.062867   11.276025
 C    9.918965   11.380430   17.794090
 C    8.973186   10.371611   17.912472
 C    9.255863    9.216522   18.658340
 C   10.506928    9.087795   19.274773
 C   11.459633   10.099239   19.133499
 C   14.206717   13.051971   19.385006
 C   14.860164   13.478895   20.542366
 C   14.191438   13.580165   21.757612
 C   12.827490   13.253128   21.813890
 C   12.152760   12.837038   20.663412
 H   12.140985   11.040174   15.913678
 H    9.845929   12.999652   13.046963
 H    8.295900    9.206400   11.701487
 H   10.559684    8.204775   11.817536
 H   13.161443    7.652320   12.124249
 H   15.601253    7.662171   12.531754
 H   13.127923   15.933721   15.645515
 H   12.692687   14.866408   17.833086
 H   13.527960   16.555227   13.069756
 H   13.773658   16.611128   10.606604
 H   15.444145   11.817971   13.684903
 H   12.914240   12.390161   10.372872
 O    8.255112    8.285177   18.722706
 C    8.510768    7.096934   19.462109
 O    4.395582   10.478446    7.851410
 C    4.930559   10.485770    6.533237
 O   19.305138    5.101672   15.669839
 O   16.142624   10.337540    6.361007
 C   15.597910    9.732776    5.194332
 C   20.489141    4.519763   15.136762
 H   17.205906    6.288202   16.473112
 H   16.184278    8.337666   15.498082
 H   12.644249   13.301876    6.710828
 H   13.769217   11.452557    5.539232
 H   20.322826    6.447358   13.500115
 H   19.291431    8.460432   12.528433
 H   16.936300   11.528059    8.461912
 H   15.800045   13.414154    9.627080
 H   12.434866    9.988396   19.606869
 H   10.759669    8.201119   19.852373
 H    7.994850   10.462935   17.440739
 H    9.687752   12.276366   17.218191
 H    7.060309   11.147481    7.739872
 H    8.419294   11.698918    9.715660
 H    3.637098   10.498899   10.277655
 H    5.025678   11.029826   12.271893
 H    5.742965    9.749364    6.423048
 H    5.306368   11.483371    6.254286
 H    4.102312   10.212903    5.871611
 H   15.504554   10.457139    4.368988
 H   14.611749    9.283589    5.394581
 H   16.302643    8.945782    4.907536
 H   20.700611    3.645385   15.760367
 H   21.340458    5.217680   15.186498
 H   20.346226    4.197251   14.092897
 H    8.717379    7.316923   20.522017
 H    9.356006    6.530959   19.038578
 H    7.599020    6.495719   19.388134
 O    4.951787   15.556342   13.662961
 H    6.049027   13.812102   11.875993
 H    5.693046   14.950952   16.020868
 H    7.192267   13.054624   16.644405
 H    8.093974   11.531101   14.900399
 H   14.746672   12.964501   18.444323
 H   15.921749   13.722738   20.494926
 H   14.697976   13.902935   22.665781
 O   12.233842   13.387319   23.040127
 H   11.093840   12.593066   20.688778
 O   20.806702   12.483311   14.477292
 H   19.178555   10.583834   14.796338
 H   20.167704   13.879983   12.195667
 H   18.267586   13.278700   10.737521
 H   16.814890   11.339934   11.259891
 H   11.259496   15.963012    9.450407
 H   10.401496   17.871746    8.131822
 H   11.582468   18.664104    6.109665
 O   13.911366   17.522064    5.192723
 H   14.591496   15.634077    6.717621
 C   10.849858   13.070988   23.143242
 C   21.641584   13.610941   14.240352
 C   13.467770   18.628571    4.416035
 C    4.588004   15.805299   12.309506
 H   10.581851   13.240037   24.191082
 H   10.654381   12.018942   22.881010
 H   10.236991   13.722737   22.500483
 H   22.362900   13.627196   15.063751
 H   21.063976   14.548943   14.242750
 H   22.182470   13.520840   13.284665
 H   14.199056   18.740536    3.608916
 H   13.437592   19.554613    5.012150
 H   12.471943   18.445614    3.981560
 H    3.925163   16.676310   12.334214
 H    4.050744   14.949284   11.871035
 H    5.469334   16.034937   11.689450

