%mem=16GB
%nprocs=24
#p opt b3lyp/6-31g*

Auto Spiro

0 1
 C   12.538653   10.494384   12.686191
 C   11.220690    9.854752   12.242109
 C   11.392992    8.471999   12.025608
 C   12.787205    8.125416   12.282651
 C   13.496033    9.302705   12.598099
 C   12.922705   11.744652   11.892543
 C   13.055778   12.854681   12.757430
 C   12.820560   12.417953   14.128088
 C   12.491388   11.046403   14.120722
 C   13.072559   11.881437   10.522136
 C   13.356797   13.153630    9.985000
 C   13.499620   14.255238   10.847067
 C   13.347905   14.112964   12.224586
 C   13.453251    6.893406   12.282033
 C   14.809886    6.851030   12.588520
 C   15.519750    8.028411   12.886236
 C   14.854069    9.266229   12.882691
 C    9.996314   10.470268   12.033496
 C    8.904669    9.696008   11.597717
 C    9.071482    8.311260   11.397937
 C   10.304503    7.699978   11.606343
 C   12.891488   13.097351   15.347430
 C   12.640258   12.409202   16.531448
 C   12.320939   11.036615   16.523802
 C   12.239664   10.353891   15.292896
 N   13.470817   13.325590    8.582582
 N   16.906160    7.969815   13.204066
 N    7.641898   10.296441   11.355375
 N   12.123137   10.356653   17.745234
 C   12.849362   10.768993   18.895132
 C    7.230669   11.412349   12.126426
 C   11.145103    9.339781   17.887005
 C    6.891498    9.944831   10.199905
 C   14.255081   12.420443    7.820170
 C   13.057333   14.541451    7.982179
 C   17.376537    7.149689   14.250750
 C   17.798346    8.824149   12.503958
 C   18.702742    6.690930   14.271530
 C   19.178818    5.892107   15.313618
 C   18.326071    5.515828   16.357443
 C   16.997746    5.963417   16.343275
 C   16.532463    6.773154   15.315782
 C   13.857694   12.046498    6.530400
 C   14.635364   11.184229    5.755143
 C   15.829937   10.667336    6.272347
 C   16.232702   11.035295    7.563845
 C   15.459193   11.899682    8.325682
 C   13.926341   15.270117    7.160655
 C   13.526631   16.456772    6.545675
 C   12.240554   16.945297    6.764809
 C   11.352777   16.240067    7.583075
 C   11.739556   15.036100    8.181630
 C   18.545134    9.799437   13.171728
 C   19.430632   10.631731   12.486121
 C   19.568571   10.495508   11.105559
 C   18.839558    9.524119   10.413904
 C   17.961960    8.676804   11.101767
 C    7.231493   11.369130   13.542987
 C    6.890216   12.509580   14.274411
 C    6.497171   13.683132   13.632380
 C    6.440802   13.718014   12.237082
 C    6.811920   12.597775   11.498318
 C    7.517088    9.648099    8.983048
 C    6.772446    9.293203    7.855699
 C    5.374671    9.250874    7.924189
 C    4.739004    9.561524    9.135921
 C    5.486164    9.894136   10.256639
 C    9.902662    9.420535   17.231171
 C    8.945607    8.430743   17.405714
 C    9.191583    7.334989   18.245514
 C   10.421761    7.246119   18.907135
 C   11.386540    8.237774   18.717686
 C   14.268957   10.745475   18.895071
 C   14.967429   11.167552   20.032658
 C   14.275041   11.578981   21.175341
 C   12.881447   11.577071   21.192856
 C   12.181688   11.180713   20.052788
 H   12.011320    9.288354   15.277026
 H    9.875979   11.542624   12.187761
 H    8.219369    7.718311   11.067152
 H   10.410072    6.626769   11.442992
 H   12.921535    5.971529   12.042485
 H   15.346476    5.902855   12.589912
 H   13.138788   14.159290   15.382549
 H   12.692526   12.932027   17.485840
 H   13.459435   14.982037   12.874409
 H   13.728038   15.231675   10.420282
 H   15.401248   10.175201   13.134993
 H   12.945504   11.030056    9.853138
 O    8.176535    6.418058   18.351679
 C    8.399364    5.292783   19.191505
 O    4.550149    8.923676    6.880654
 C    5.162212    8.626175    5.631291
 O   18.687664    4.728457   17.423479
 O   16.664892    9.806870    5.604757
 C   16.292833    9.428357    4.285236
 C   20.028868    4.260782   17.460558
 H   16.338371    5.676259   17.162153
 H   15.500504    7.120621   15.334052
 H   12.928113   12.444291    6.124216
 H   14.292895   10.916895    4.757556
 H   20.215296    5.561309   15.288086
 H   19.377516    6.964418   13.461413
 H   17.175390   10.652642    7.953358
 H   15.790824   12.183389    9.323826
 H   12.342678    8.157575   19.233753
 H   10.648617    6.408639   19.563681
 H    7.980265    8.503977   16.906780
 H    9.683950   10.264501   16.578245
 H    7.295961    9.067156    6.929061
 H    8.603405    9.688487    8.914812
 H    3.651032    9.523453    9.182369
 H    4.978720   10.129208   11.191980
 H    5.830230    7.752799    5.705427
 H    5.733006    9.486669    5.246418
 H    4.342638    8.397701    4.942403
 H   16.225718   10.302592    3.617649
 H   15.330750    8.890792    4.274022
 H   17.084175    8.760931    3.928619
 H   20.116127    3.666496   18.376162
 H   20.748968    5.094878   17.498453
 H   20.261250    3.624576   16.590685
 H    8.573749    5.595547   20.236958
 H    9.254224    4.690408   18.843931
 H    7.486226    4.691041   19.137167
 H    6.121960   14.623890   11.721625
 H    6.788772   12.624120   10.408762
 H    6.224188   14.559510   14.219449
 H    6.922133   12.443274   15.361877
 O    7.621511   10.250599   14.243792
 O   14.859797   10.283707   17.759071
 H   16.055294   11.157558   20.039408
 H   14.836471   11.896564   22.053946
 H   12.338625   11.894891   22.082348
 H   11.091787   11.180320   20.043455
 H   19.998413   11.388612   13.025979
 H   18.420753    9.891592   14.250987
 H   20.250704   11.142669   10.554355
 H   18.976675    9.413318    9.340016
 O   17.248610    7.673675   10.521515
 O   10.920357   14.270321    8.955431
 H   10.345399   16.622288    7.734446
 H   11.915593   17.875425    6.299089
 H   14.223862   17.000965    5.909566
 H   14.933887   14.883998    7.007903
 C   17.406446    7.459631    9.121490
 C    9.613290   14.760730    9.232869
 C    6.752860    9.115770   14.114769
 C   16.282530   10.227826   17.719547
 H   16.774942    6.597829    8.883346
 H   18.452778    7.228496    8.865673
 H   17.068407    8.327852    8.536751
 H   16.682755    9.576349   18.512239
 H   16.726061   11.231867   17.811197
 H   16.534414    9.801905   16.743298
 H    7.235291    8.297894   14.660373
 H    6.619776    8.818719   13.065156
 H    5.770096    9.332985   14.563973
 H    9.150966   14.019838    9.892532
 H    9.014533   14.858493    8.312846
 H    9.650340   15.733659    9.747770

