%mem=16GB
%nprocs=24
#p sp METHOD/BASIS

Auto Spiro; and yes I said yes I will Yes.

0 1
