%mem=16GB
%nprocs=24
#p sp HF/cc-pVQZ

Auto Spiro; and yes I said yes I will Yes.

0 1
C -0.013749 0.092784 -0.242204
C -0.729903 -0.833780 -1.228218
C -0.455133 -0.457645 -2.556561
C 0.458570 0.688742 -2.539112
C 0.721541 1.036253 -1.200069
C -0.979303 0.767138 0.739183
C -0.618531 0.474165 2.069553
C 0.580776 -0.367292 2.058321
C 0.938202 -0.624252 0.720651
C -2.116330 1.500992 0.444125
C -2.928174 1.968288 1.496025
C -2.553889 1.697712 2.824864
C -1.413054 0.951751 3.113960
C 1.085420 1.399377 -3.566706
C 1.975585 2.423040 -3.249607
C 2.269689 2.742234 -1.909338
C 1.613541 2.046447 -0.877881
C -1.579287 -1.888601 -0.937291
C -2.167243 -2.609351 -1.989883
C -1.880550 -2.247368 -3.319079
C -1.038919 -1.173548 -3.605629
C 1.351963 -0.912715 3.087314
C 2.451018 -1.710916 2.774919
C 2.806968 -1.966459 1.437851
C 2.036906 -1.403541 0.402427
N -4.133822 2.666733 1.224578
N 3.217008 3.749306 -1.596139
N -3.026817 -3.707670 -1.701827
N 3.937698 -2.769631 1.138521
C 5.088241 -2.679498 1.967406
C -2.655975 -4.575579 -0.634088
C 3.929205 -3.682801 0.047727
C -4.311792 -3.825530 -2.285468
C -4.230202 3.607003 0.164313
C -5.262883 2.446469 2.060825
C 4.455310 3.848501 -2.274322
C 2.932246 4.651387 -0.531399
C 5.120686 5.076599 -2.380501
C 6.362238 5.180843 -3.013596
C 6.960918 4.050802 -3.575584
C 6.302437 2.817702 -3.480226
C 5.078617 2.714825 -2.833769
C -5.436614 3.790716 -0.521354
C -5.555474 4.732293 -1.547838
C -4.450520 5.500496 -1.921470
C -3.237450 5.321249 -1.241963
C -3.130248 4.401621 -0.209588
C -5.792493 3.507298 2.843817
C -6.888804 3.308450 3.678476
C -7.463927 2.033159 3.780930
C -6.955234 0.969494 3.038771
C -5.869227 1.184735 2.178784
C 3.466558 4.453120 0.753923
C 3.194659 5.349834 1.799749
C 2.363601 6.444780 1.549612
C 1.807444 6.661673 0.283579
C 2.097771 5.769610 -0.749157
C -1.584181 -5.469986 -0.768295
C -1.172102 -6.292326 0.288053
C -1.852543 -6.228590 1.503328
C -2.927040 -5.342811 1.672508
C -3.308812 -4.508293 0.624636
C -4.961950 -2.736392 -2.883840
C -6.224136 -2.874128 -3.467759
C -6.879650 -4.107943 -3.449675
C -6.247441 -5.198284 -2.839702
C -4.986662 -5.062486 -2.274775
C 2.742516 -4.321928 -0.359466
C 2.736732 -5.204066 -1.429603
C 3.924990 -5.504817 -2.110894
C 5.115089 -4.897909 -1.702963
C 5.108326 -3.987582 -0.641251
C 5.800142 -1.478065 2.115727
C 6.912249 -1.378981 2.962583
C 7.342186 -2.505705 3.660477
C 6.660163 -3.724318 3.528492
C 5.537858 -3.805212 2.708219
H 2.305145 -1.582422 -0.633721
H -1.804230 -2.152993 0.090550
H -2.326757 -2.816316 -4.128923
H -0.832882 -0.912424 -4.640764
H 0.886317 1.163217 -4.609322
H 2.462754 2.983402 -4.040944
H 1.096564 -0.735058 4.129339
H 3.044479 -2.149671 3.570518
H -1.154282 0.745533 4.149821
H -3.176284 2.069111 3.632402
H 1.844111 2.273318 0.157103
H -2.396066 1.694338 -0.586681
O 3.813287 -6.397313 -3.147115
C 4.982620 -6.708906 -3.879863
O -8.118016 -4.352159 -3.988955
C -8.788544 -3.274920 -4.614839
O 8.169337 4.039131 -4.227187
O -4.447061 6.443805 -2.916926
C -5.645767 6.642240 -3.642884
C 8.860136 5.266655 -4.357215
H 6.776675 1.940769 -3.911037
H 4.594715 1.746771 -2.762149
H -6.304452 3.200686 -0.244478
H 6.839668 6.153035 -3.068392
H 4.666654 5.967784 -1.961200
H -2.385829 5.928324 -1.533547
H -2.186954 4.294279 0.314724
H 6.041134 -3.519376 -0.342890
H 6.053020 -5.107713 -2.205236
H 1.808140 -5.666863 -1.749476
H 1.813084 -4.118490 0.160709
H -6.683590 -2.003543 -3.922975
H -4.480160 -1.765403 -2.901334
H -6.760345 -6.155350 -2.824420
H -4.518865 -5.923194 -1.808434
H -8.217140 -2.879329 -5.466295
H -8.989321 -2.455201 -3.910659
H -9.737409 -3.677573 -4.975774
H -6.463981 6.982356 -2.992692
H -5.961557 5.727450 -4.163341
H -5.428044 7.417714 -4.380314
H 9.779669 5.040657 -4.901554
H 9.116950 5.695920 -3.378370
H 8.276510 6.004411 -4.925689
H 5.748359 -7.178543 -3.246212
H 5.414193 -5.817613 -4.356393
H 4.675838 -7.416113 -4.653565
H -3.414130 -5.311899 2.638427
O -4.285999 -3.568209 0.726951
H -0.328883 -6.950223 0.121926
O -0.835506 -5.517760 -1.922128
O 5.389766 -0.320013 1.497937
H 7.407395 -0.419350 3.037063
H 7.017594 -4.572282 4.098456
O 4.792075 -4.933066 2.561531
H 3.615701 5.186603 2.780911
O 4.233489 3.340344 0.906555
H 1.171105 7.525835 0.144322
O 1.622969 5.901276 -2.017057
O -5.380352 0.078853 1.525373
H -7.368589 -0.029526 3.089089
H -7.303978 4.105439 4.281742
O -5.144803 4.696912 2.721715
O -1.550065 -6.986859 2.596878
C -0.444643 -7.872348 2.509569
O -8.522972 1.942174 4.638613
C -9.145810 0.677621 4.797857
O 2.029074 7.375866 2.491703
C 2.525849 7.214332 3.809541
O 8.419258 -2.531975 4.500458
C 9.156644 -1.333211 4.676211
H -0.371897 -8.356062 3.485584
H 0.487615 -7.332474 2.299154
H -0.600005 -8.636790 1.736771
H 9.961362 -1.575972 5.372859
H 8.534742 -0.535559 5.103648
H 9.588926 -0.982901 3.729666
H 2.127109 8.052890 4.383807
H 3.623273 7.248020 3.836215
H 2.182961 6.272687 4.258189
H -9.573333 0.316417 3.853174
H -9.947894 0.828025 5.522971
H -8.442761 -0.072356 5.183509
C 5.200600 -6.108296 3.241204
C 4.706442 3.003804 2.206247
H -6.511138 4.843884 -2.048003
C -5.633141 5.812741 3.448078
C -4.888100 -3.353769 1.998919
H -5.519386 -2.472492 1.885752
H -4.130778 -3.150475 2.765606
H -5.492344 -4.218648 2.302092
H 4.477859 -6.877229 2.962729
H 5.185373 -5.970780 4.330542
H 6.205161 -6.424412 2.931641
H 5.177147 2.025207 2.107347
H 3.879089 2.930849 2.923143
H 5.437383 3.740134 2.566461
H -5.588789 5.639291 4.531387
H -6.664843 6.057209 3.163934
H -4.977923 6.645343 3.186565
C 5.573529 -0.250001 0.078098
C 0.761498 6.991053 -2.304474
C -5.522290 0.049995 0.099839
C -1.456635 -6.134875 -3.051346
H 0.491984 6.886962 -3.356796
H 1.264081 7.954945 -2.149363
H -0.148185 6.958295 -1.691122
H -0.720973 -6.094921 -3.857424
H -2.363664 -5.603864 -3.355350
H -1.702742 -7.183446 -2.834811
H -5.114041 -0.910193 -0.220609
H -6.582160 0.111542 -0.181521
H -4.969909 0.863133 -0.378722
H 5.212060 0.735315 -0.221525
H 5.002861 -1.025965 -0.440063
H 6.637512 -0.345307 -0.176153

